p edge 289 541
e 1 2
e 1 3
e 2 4
e 2 5
e 3 5
e 3 6
e 4 7
e 4 8
e 5 8
e 5 9
e 6 9
e 6 52
e 7 10
e 7 11
e 8 11
e 8 12
e 9 12
e 9 53
e 10 13
e 10 14
e 11 14
e 11 15
e 12 15
e 12 54
e 13 16
e 13 17
e 14 17
e 14 18
e 15 18
e 15 55
e 16 19
e 16 20
e 17 20
e 17 21
e 18 21
e 18 56
e 19 22
e 19 23
e 20 23
e 20 24
e 21 24
e 21 57
e 22 25
e 22 26
e 23 26
e 23 27
e 24 27
e 24 58
e 25 28
e 25 29
e 26 29
e 26 30
e 27 30
e 27 59
e 28 31
e 28 32
e 29 32
e 29 33
e 30 33
e 30 60
e 31 34
e 31 35
e 32 35
e 32 36
e 33 36
e 33 61
e 34 37
e 34 38
e 35 38
e 35 39
e 36 39
e 36 62
e 37 40
e 37 41
e 38 41
e 38 42
e 39 42
e 39 63
e 40 43
e 40 44
e 41 44
e 41 45
e 42 45
e 42 64
e 43 46
e 43 47
e 44 47
e 44 48
e 45 48
e 45 65
e 46 49
e 47 49
e 47 50
e 48 50
e 48 66
e 49 51
e 50 51
e 50 67
e 51 68
e 52 53
e 52 69
e 53 54
e 53 70
e 54 55
e 54 71
e 55 72
e 56 57
e 56 73
e 57 58
e 57 74
e 58 59
e 58 75
e 59 60
e 59 76
e 60 61
e 60 77
e 61 62
e 61 78
e 62 63
e 62 79
e 63 64
e 63 80
e 64 65
e 64 81
e 65 66
e 65 82
e 66 67
e 66 83
e 67 68
e 67 84
e 68 85
e 69 70
e 69 86
e 70 71
e 70 87
e 71 72
e 71 88
e 72 73
e 73 74
e 73 89
e 74 75
e 74 90
e 75 76
e 75 91
e 76 77
e 76 92
e 77 78
e 77 93
e 78 79
e 78 94
e 79 80
e 79 95
e 80 81
e 80 96
e 81 82
e 81 97
e 82 83
e 82 98
e 83 84
e 83 99
e 84 85
e 84 100
e 85 101
e 86 87
e 86 102
e 87 88
e 87 103
e 88 104
e 88 105
e 89 104
e 89 90
e 89 107
e 90 91
e 90 108
e 91 92
e 91 109
e 92 93
e 92 110
e 93 94
e 93 111
e 94 95
e 94 112
e 95 96
e 95 113
e 96 97
e 96 114
e 97 98
e 97 115
e 98 99
e 98 116
e 99 100
e 99 117
e 100 101
e 100 118
e 101 119
e 102 103
e 102 120
e 103 105
e 103 121
e 104 106
e 105 106
e 105 122
e 106 107
e 106 123
e 107 108
e 107 124
e 108 109
e 108 125
e 109 110
e 109 126
e 110 111
e 110 127
e 111 112
e 111 128
e 112 113
e 112 129
e 113 114
e 113 130
e 114 115
e 114 131
e 115 116
e 115 132
e 116 117
e 116 133
e 117 118
e 117 134
e 118 119
e 118 135
e 119 136
e 120 121
e 120 137
e 121 122
e 121 138
e 122 123
e 122 139
e 123 124
e 123 140
e 124 125
e 124 141
e 125 126
e 125 142
e 126 127
e 126 143
e 127 128
e 127 144
e 128 129
e 128 145
e 129 130
e 129 146
e 130 131
e 130 147
e 131 132
e 131 148
e 132 133
e 132 149
e 133 134
e 133 150
e 134 135
e 134 151
e 135 136
e 135 152
e 136 153
e 137 138
e 137 154
e 138 139
e 138 155
e 139 140
e 139 156
e 140 141
e 140 157
e 141 142
e 141 158
e 142 143
e 142 159
e 143 144
e 143 160
e 144 145
e 144 161
e 145 146
e 145 162
e 146 147
e 146 163
e 147 148
e 147 164
e 148 149
e 148 165
e 149 150
e 149 166
e 150 151
e 150 167
e 151 152
e 151 168
e 152 153
e 152 169
e 153 170
e 154 155
e 154 171
e 155 156
e 155 172
e 156 157
e 156 173
e 157 158
e 157 174
e 158 159
e 158 175
e 159 160
e 159 176
e 160 161
e 160 177
e 161 162
e 161 178
e 162 163
e 162 179
e 163 164
e 163 180
e 164 165
e 164 181
e 165 166
e 165 182
e 166 167
e 166 183
e 167 168
e 167 184
e 168 169
e 168 185
e 169 170
e 169 186
e 170 187
e 171 172
e 171 188
e 172 173
e 172 189
e 173 174
e 173 190
e 174 175
e 174 191
e 175 176
e 175 192
e 176 177
e 176 193
e 177 178
e 177 194
e 178 179
e 178 195
e 179 180
e 179 196
e 180 181
e 180 197
e 181 182
e 181 198
e 182 183
e 182 199
e 183 184
e 183 200
e 184 185
e 184 201
e 185 186
e 185 202
e 186 187
e 186 203
e 187 204
e 188 189
e 188 205
e 189 190
e 189 206
e 190 191
e 190 207
e 191 192
e 191 208
e 192 193
e 192 209
e 193 194
e 193 210
e 194 195
e 194 211
e 195 196
e 195 212
e 196 197
e 196 213
e 197 198
e 197 214
e 198 199
e 198 215
e 199 200
e 199 216
e 200 201
e 200 217
e 201 202
e 201 218
e 202 203
e 202 219
e 203 204
e 203 220
e 204 221
e 205 206
e 205 222
e 206 207
e 206 223
e 207 208
e 207 224
e 208 209
e 208 225
e 209 210
e 209 226
e 210 211
e 210 227
e 211 212
e 211 228
e 212 213
e 212 229
e 213 214
e 213 230
e 214 215
e 214 231
e 215 216
e 216 217
e 216 232
e 217 218
e 217 233
e 218 219
e 218 234
e 219 220
e 219 235
e 220 221
e 220 236
e 221 237
e 222 223
e 222 238
e 223 224
e 223 239
e 224 225
e 224 240
e 225 226
e 225 241
e 226 227
e 226 242
e 227 228
e 227 243
e 228 229
e 228 244
e 229 230
e 229 245
e 230 231
e 230 246
e 231 247
e 231 248
e 232 247
e 232 233
e 232 250
e 233 234
e 233 251
e 234 235
e 234 252
e 235 236
e 235 253
e 236 237
e 236 254
e 237 255
e 238 239
e 238 256
e 239 240
e 239 257
e 240 241
e 240 258
e 241 242
e 241 259
e 242 243
e 242 260
e 243 244
e 243 261
e 244 245
e 244 262
e 245 246
e 245 263
e 246 248
e 246 264
e 247 249
e 248 249
e 248 265
e 249 250
e 249 266
e 250 251
e 250 267
e 251 252
e 251 268
e 252 253
e 252 269
e 253 254
e 253 270
e 254 255
e 254 271
e 255 272
e 256 257
e 256 273
e 257 258
e 257 274
e 258 259
e 258 275
e 259 260
e 259 276
e 260 261
e 260 277
e 261 262
e 261 278
e 262 263
e 262 279
e 263 264
e 263 280
e 264 265
e 264 281
e 265 266
e 265 282
e 266 267
e 266 283
e 267 268
e 267 284
e 268 269
e 268 285
e 269 270
e 269 286
e 270 271
e 270 287
e 271 272
e 271 288
e 272 289
e 273 274
e 274 275
e 275 276
e 276 277
e 277 278
e 278 279
e 279 280
e 280 281
e 281 282
e 282 283
e 283 284
e 284 285
e 285 286
e 286 287
e 287 288
e 288 289
l 42
t 1 289
